NAME : B-n51-k7.625139.tour
COMMENT : Length = 625139
COMMENT : Found by LKH [Keld Helsgaun] Sun Dec 17 19:09:18 2017
TYPE : TOUR
DIMENSION : 57
TOUR_SECTION
1
19
40
30
14
56
6
41
37
49
34
20
4
36
57
22
45
21
2
10
50
31
53
12
44
27
29
8
15
55
7
5
43
17
18
11
3
39
35
54
42
28
32
33
38
13
9
52
51
24
16
48
46
26
47
23
25
-1
EOF
